
Log started (V12.8.0.0) Fri Apr 28 14:03:21 2023

Warning, line 4: Characters after RHS value are ignored.
Warning, line 1018: '+' not valid identifier.
Warning, line 1018: '+' not valid identifier.
Warning, line 1018: '+' not valid identifier.
Warning, line 1018: '+' not valid identifier.
Warning, line 1018: '+' not valid identifier.
Warning, line 1018: '+' not valid identifier.
Warning, line 1018: '+' not valid identifier.
Warning, line 1018: '+' not valid identifier.
Warning, line 1018: '+' not valid identifier.
Warning, line 1018: '+' not valid identifier.
Warning, line 1018: '+' not valid identifier.
Warning, line 1018: '+' not valid identifier.
Warning, line 1018: '+' not valid identifier.
Warning, line 1018: '+' not valid identifier.
Warning, line 1018: '+' not valid identifier.
Warning, line 1018: '+' not valid identifier.
Warning, line 1018: '+' not valid identifier.
Warning, line 1018: '+' not valid identifier.
Warning, line 1018: '+' not valid identifier.
Warning, line 1018: '+' not valid identifier.
Warning: 'End' missing.
338 name warnings not printed.

Problem '/home/ahmad/Desktop/astran-new-cmd/bin/Debug/ILPmodel.lp' read.
Read time = 0.01 sec. (0.09 ticks)
Tried aggregator 4 times.
MIP Presolve eliminated 343 rows and 109 columns.
MIP Presolve modified 135 coefficients.
Aggregator did 123 substitutions.
Reduced MIP has 547 rows, 360 columns, and 1545 nonzeros.
Reduced MIP has 167 binaries, 193 generals, 0 SOSs, and 0 indicators.
Presolve time = 0.01 sec. (2.86 ticks)
Probing time = 0.00 sec. (0.18 ticks)
Cover probing fixed 0 vars, tightened 3 bounds.
Tried aggregator 1 time.
MIP Presolve eliminated 2 rows and 0 columns.
MIP Presolve modified 48 coefficients.
Reduced MIP has 545 rows, 360 columns, and 1541 nonzeros.
Reduced MIP has 167 binaries, 193 generals, 0 SOSs, and 0 indicators.
Presolve time = 0.00 sec. (0.91 ticks)
Probing time = 0.00 sec. (0.18 ticks)
Clique table members: 41.
MIP emphasis: balance optimality and feasibility.
MIP search method: dynamic search.
Parallel mode: deterministic, using up to 4 threads.
Root relaxation solution time = 0.00 sec. (2.46 ticks)

        Nodes                                         Cuts/
   Node  Left     Objective  IInf  Best Integer    Best Bound    ItCnt     Gap

      0     0   607236.9909   158                 607236.9909      175         
      0     0   607357.1256    83                    Cuts: 58      214         
      0     0   607369.6503   117                    Cuts: 24      246         
      0     0   607369.8098   140                     Cuts: 4      257         
      0     0   607369.8098   140                     Cuts: 3      259         
*     0+    0                       611284.0000   607369.8098             0.64%
*     0+    0                       607592.0000   607369.8098             0.04%
*     0+    0                       607569.0000   607375.3466             0.03%
      0     2   607369.8883   114   607569.0000   607375.3466      259    0.03%
Elapsed time = 0.18 sec. (92.72 ticks, tree = 0.01 MB, solutions = 3)
*   400+  181                       607473.0000   607378.7161             0.02%
*   468+  176                       607457.0000   607378.7161             0.01%
*   476+  168                       607434.0000   607378.7161             0.01%

Implied bound cuts applied:  13
Mixed integer rounding cuts applied:  5
Zero-half cuts applied:  3
Gomory fractional cuts applied:  33

Root node processing (before b&c):
  Real time             =    0.17 sec. (92.50 ticks)
Parallel b&c, 4 threads:
  Real time             =    0.12 sec. (52.94 ticks)
  Sync time (average)   =    0.03 sec.
  Wait time (average)   =    0.00 sec.
                          ------------
Total (root+branch&cut) =    0.29 sec. (145.43 ticks)

Solution pool: 9 solutions saved.

MIP - Integer optimal, tolerance (0.0001/1e-06):  Objective =  6.0743400000e+05
Current MIP best bound =  6.0737883338e+05 (gap = 55.1666, 0.01%)
Solution time =    0.29 sec.  Iterations = 1881  Nodes = 489 (177)
Deterministic time = 145.43 ticks  (493.98 ticks/sec)


Incumbent solution written to file '/home/ahmad/Desktop/astran-new-cmd/bin/Debug/xmlsol.sol'.

Log started (V12.8.0.0) Fri Apr 28 14:03:22 2023

Warning, line 4: Characters after RHS value are ignored.
Warning, line 1018: '+' not valid identifier.
Warning, line 1018: '+' not valid identifier.
Warning, line 1018: '+' not valid identifier.
Warning, line 1018: '+' not valid identifier.
Warning, line 1018: '+' not valid identifier.
Warning, line 1018: '+' not valid identifier.
Warning, line 1018: '+' not valid identifier.
Warning, line 1018: '+' not valid identifier.
Warning, line 1018: '+' not valid identifier.
Warning, line 1018: '+' not valid identifier.
Warning, line 1018: '+' not valid identifier.
Warning, line 1018: '+' not valid identifier.
Warning, line 1018: '+' not valid identifier.
Warning, line 1018: '+' not valid identifier.
Warning, line 1018: '+' not valid identifier.
Warning, line 1018: '+' not valid identifier.
Warning, line 1018: '+' not valid identifier.
Warning, line 1018: '+' not valid identifier.
Warning, line 1018: '+' not valid identifier.
Warning, line 1018: '+' not valid identifier.
Warning: 'End' missing.
338 name warnings not printed.

Problem '/home/ahmad/Desktop/astran-new-cmd/bin/Debug/ILPmodel.lp' read.
Read time = 0.00 sec. (0.09 ticks)
Tried aggregator 4 times.
MIP Presolve eliminated 343 rows and 109 columns.
MIP Presolve modified 135 coefficients.
Aggregator did 123 substitutions.
Reduced MIP has 547 rows, 360 columns, and 1545 nonzeros.
Reduced MIP has 167 binaries, 193 generals, 0 SOSs, and 0 indicators.
Presolve time = 0.01 sec. (2.88 ticks)
Probing time = 0.00 sec. (0.18 ticks)
Cover probing fixed 0 vars, tightened 3 bounds.
Tried aggregator 1 time.
MIP Presolve eliminated 2 rows and 0 columns.
MIP Presolve modified 48 coefficients.
Reduced MIP has 545 rows, 360 columns, and 1541 nonzeros.
Reduced MIP has 167 binaries, 193 generals, 0 SOSs, and 0 indicators.
Presolve time = 0.00 sec. (0.91 ticks)
Probing time = 0.00 sec. (0.17 ticks)
Clique table members: 41.
MIP emphasis: balance optimality and feasibility.
MIP search method: dynamic search.
Parallel mode: deterministic, using up to 4 threads.
Root relaxation solution time = 0.00 sec. (2.37 ticks)

        Nodes                                         Cuts/
   Node  Left     Objective  IInf  Best Integer    Best Bound    ItCnt     Gap

      0     0   607251.4770   140                 607251.4770      177         
      0     0   607382.1694    52                    Cuts: 47      207         
      0     0   607395.6471    54                    Cuts: 17      230         
      0     0   607395.9131    54                     Cuts: 2      232         
*     0+    0                       607736.0000   607395.9131             0.06%
*     0+    0                       607689.0000   607395.9131             0.05%
      0     2   607395.9131    45   607689.0000   607395.9131      232    0.05%
Elapsed time = 0.10 sec. (39.83 ticks, tree = 0.01 MB, solutions = 2)
*    25+    3                       607681.0000   607397.6397             0.05%
*    31+    2                       607669.0000   607397.6397             0.04%
*   167   102      integral     0   607618.0000   607407.3680      699    0.03%
*   203+  122                       607575.0000   607407.3680             0.03%
*   214+  138                       607519.0000   607407.3680             0.02%
*   282+  149                       607471.0000   607407.3680             0.01%
*   291   107      integral     0   607466.0000   607407.3680     1253    0.01%

Implied bound cuts applied:  17
Mixed integer rounding cuts applied:  6
Zero-half cuts applied:  3
Gomory fractional cuts applied:  20

Root node processing (before b&c):
  Real time             =    0.10 sec. (39.61 ticks)
Parallel b&c, 4 threads:
  Real time             =    0.06 sec. (29.14 ticks)
  Sync time (average)   =    0.01 sec.
  Wait time (average)   =    0.00 sec.
                          ------------
Total (root+branch&cut) =    0.16 sec. (68.74 ticks)

Solution pool: 9 solutions saved.

MIP - Integer optimal, tolerance (0.0001/1e-06):  Objective =  6.0746600000e+05
Current MIP best bound =  6.0740736805e+05 (gap = 58.632, 0.01%)
Solution time =    0.16 sec.  Iterations = 1482  Nodes = 325 (111)
Deterministic time = 68.75 ticks  (427.85 ticks/sec)


Incumbent solution written to file '/home/ahmad/Desktop/astran-new-cmd/bin/Debug/xmlsol.sol'.
